40
1 0 46
2 0 42
2 1 21
3 0 57
3 1 52
3 2 45
4 0 50
4 1 53
4 2 51
4 3 5
5 0 7
5 1 59
5 2 23
5 3 2
5 4 45
6 0 35
6 1 60
6 2 33
6 3 7
6 4 28
6 5 3
7 0 35
7 1 31
7 2 41
7 3 43
7 4 16
7 5 25
7 6 45
8 0 45
8 1 7
8 2 44
8 3 39
8 4 46
8 5 19
8 6 6
8 7 34
9 0 22
9 1 48
9 2 36
9 3 34
9 4 30
9 5 34
9 6 14
9 7 31
9 8 39
10 0 33
10 1 14
10 2 47
10 3 57
10 4 55
10 5 5
10 6 39
10 7 11
10 8 38
10 9 34
11 0 37
11 1 16
11 2 51
11 3 27
11 4 53
11 5 49
11 6 2
11 7 30
11 8 31
11 9 47
11 10 18
12 0 9
12 1 25
12 2 9
12 3 12
12 4 37
12 5 3
12 6 28
12 7 54
12 8 38
12 9 13
12 10 28
12 11 36
13 0 3
13 1 37
13 2 7
13 3 30
13 4 47
13 5 9
13 6 51
13 7 43
13 8 2
13 9 45
13 10 49
13 11 6
13 12 44
14 0 30
14 1 34
14 2 39
14 3 34
14 4 16
14 5 8
14 6 59
14 7 5
14 8 5
14 9 45
14 10 17
14 11 45
14 12 3
14 13 38
15 0 23
15 1 55
15 2 29
15 3 24
15 4 9
15 5 11
15 6 30
15 7 10
15 8 13
15 9 20
15 10 15
15 11 26
15 12 41
15 13 10
15 14 49
16 0 18
16 1 28
16 2 46
16 3 60
16 4 23
16 5 16
16 6 53
16 7 49
16 8 48
16 9 31
16 10 46
16 11 26
16 12 57
16 13 36
16 14 20
16 15 41
17 0 1
17 1 14
17 2 40
17 3 31
17 4 11
17 5 60
17 6 19
17 7 8
17 8 20
17 9 3
17 10 37
17 11 21
17 12 35
17 13 54
17 14 12
17 15 39
17 16 46
18 0 32
18 1 29
18 2 9
18 3 54
18 4 17
18 5 40
18 6 60
18 7 19
18 8 16
18 9 19
18 10 10
18 11 44
18 12 22
18 13 14
18 14 52
18 15 37
18 16 2
18 17 27
19 0 36
19 1 46
19 2 12
19 3 53
19 4 54
19 5 26
19 6 22
19 7 10
19 8 17
19 9 4
19 10 32
19 11 16
19 12 39
19 13 13
19 14 27
19 15 16
19 16 37
19 17 50
19 18 31
20 0 12
20 1 4
20 2 40
20 3 14
20 4 58
20 5 11
20 6 6
20 7 50
20 8 37
20 9 49
20 10 27
20 11 2
20 12 38
20 13 33
20 14 7
20 15 28
20 16 50
20 17 15
20 18 39
20 19 24
21 0 7
21 1 48
21 2 41
21 3 1
21 4 21
21 5 10
21 6 34
21 7 15
21 8 46
21 9 15
21 10 54
21 11 42
21 12 53
21 13 3
21 14 16
21 15 27
21 16 55
21 17 55
21 18 6
21 19 45
21 20 57
22 0 21
22 1 20
22 2 41
22 3 22
22 4 9
22 5 13
22 6 36
22 7 39
22 8 9
22 9 32
22 10 35
22 11 3
22 12 57
22 13 10
22 14 29
22 15 6
22 16 51
22 17 34
22 18 19
22 19 48
22 20 36
22 21 45
23 0 47
23 1 60
23 2 11
23 3 45
23 4 24
23 5 23
23 6 52
23 7 40
23 8 41
23 9 50
23 10 20
23 11 52
23 12 56
23 13 27
23 14 31
23 15 51
23 16 50
23 17 11
23 18 28
23 19 51
23 20 2
23 21 58
23 22 28
24 0 5
24 1 6
24 2 49
24 3 9
24 4 38
24 5 48
24 6 23
24 7 12
24 8 52
24 9 23
24 10 43
24 11 18
24 12 59
24 13 24
24 14 21
24 15 52
24 16 30
24 17 31
24 18 58
24 19 7
24 20 18
24 21 41
24 22 15
24 23 31
25 0 39
25 1 17
25 2 37
25 3 21
25 4 29
25 5 53
25 6 6
25 7 12
25 8 48
25 9 32
25 10 19
25 11 38
25 12 50
25 13 59
25 14 27
25 15 8
25 16 26
25 17 13
25 18 56
25 19 16
25 20 54
25 21 3
25 22 34
25 23 37
25 24 3
26 0 47
26 1 2
26 2 53
26 3 28
26 4 13
26 5 34
26 6 13
26 7 51
26 8 22
26 9 20
26 10 40
26 11 24
26 12 46
26 13 56
26 14 31
26 15 18
26 16 18
26 17 51
26 18 27
26 19 43
26 20 43
26 21 57
26 22 15
26 23 17
26 24 29
26 25 13
27 0 19
27 1 25
27 2 34
27 3 28
27 4 1
27 5 22
27 6 7
27 7 35
27 8 6
27 9 39
27 10 35
27 11 39
27 12 12
27 13 22
27 14 10
27 15 48
27 16 27
27 17 30
27 18 9
27 19 3
27 20 42
27 21 8
27 22 14
27 23 2
27 24 45
27 25 18
27 26 50
28 0 36
28 1 46
28 2 49
28 3 17
28 4 42
28 5 33
28 6 25
28 7 16
28 8 59
28 9 35
28 10 59
28 11 39
28 12 60
28 13 54
28 14 32
28 15 56
28 16 58
28 17 4
28 18 31
28 19 52
28 20 33
28 21 12
28 22 34
28 23 46
28 24 60
28 25 22
28 26 22
28 27 52
29 0 42
29 1 1
29 2 55
29 3 29
29 4 51
29 5 30
29 6 50
29 7 60
29 8 1
29 9 17
29 10 32
29 11 56
29 12 33
29 13 52
29 14 54
29 15 25
29 16 19
29 17 29
29 18 6
29 19 5
29 20 11
29 21 47
29 22 6
29 23 10
29 24 60
29 25 23
29 26 5
29 27 2
29 28 17
30 0 50
30 1 24
30 2 49
30 3 51
30 4 32
30 5 10
30 6 39
30 7 51
30 8 24
30 9 32
30 10 43
30 11 8
30 12 27
30 13 10
30 14 13
30 15 56
30 16 52
30 17 26
30 18 43
30 19 13
30 20 35
30 21 30
30 22 46
30 23 6
30 24 6
30 25 11
30 26 39
30 27 26
30 28 47
30 29 18
31 0 28
31 1 14
31 2 37
31 3 56
31 4 13
31 5 33
31 6 47
31 7 45
31 8 29
31 9 15
31 10 53
31 11 21
31 12 38
31 13 21
31 14 4
31 15 17
31 16 3
31 17 14
31 18 23
31 19 9
31 20 36
31 21 52
31 22 47
31 23 1
31 24 8
31 25 29
31 26 58
31 27 3
31 28 14
31 29 52
31 30 56
32 0 58
32 1 2
32 2 52
32 3 44
32 4 51
32 5 8
32 6 49
32 7 49
32 8 27
32 9 42
32 10 9
32 11 16
32 12 54
32 13 27
32 14 7
32 15 33
32 16 25
32 17 6
32 18 41
32 19 32
32 20 44
32 21 14
32 22 52
32 23 58
32 24 55
32 25 7
32 26 1
32 27 55
32 28 7
32 29 31
32 30 57
32 31 33
33 0 20
33 1 38
33 2 53
33 3 9
33 4 8
33 5 54
33 6 33
33 7 43
33 8 1
33 9 4
33 10 2
33 11 11
33 12 51
33 13 50
33 14 60
33 15 13
33 16 34
33 17 5
33 18 36
33 19 60
33 20 56
33 21 17
33 22 8
33 23 44
33 24 23
33 25 51
33 26 11
33 27 32
33 28 48
33 29 17
33 30 53
33 31 52
33 32 4
34 0 27
34 1 28
34 2 13
34 3 47
34 4 38
34 5 26
34 6 57
34 7 4
34 8 42
34 9 39
34 10 58
34 11 53
34 12 43
34 13 36
34 14 35
34 15 1
34 16 14
34 17 20
34 18 38
34 19 28
34 20 23
34 21 51
34 22 49
34 23 25
34 24 5
34 25 13
34 26 44
34 27 28
34 28 47
34 29 21
34 30 5
34 31 7
34 32 22
34 33 19
35 0 2
35 1 41
35 2 34
35 3 48
35 4 51
35 5 58
35 6 32
35 7 55
35 8 4
35 9 33
35 10 50
35 11 23
35 12 53
35 13 20
35 14 42
35 15 5
35 16 38
35 17 54
35 18 27
35 19 16
35 20 26
35 21 46
35 22 33
35 23 57
35 24 21
35 25 21
35 26 15
35 27 22
35 28 47
35 29 38
35 30 24
35 31 25
35 32 51
35 33 35
35 34 27
36 0 38
36 1 53
36 2 47
36 3 45
36 4 50
36 5 27
36 6 10
36 7 60
36 8 40
36 9 25
36 10 13
36 11 57
36 12 55
36 13 11
36 14 34
36 15 12
36 16 46
36 17 44
36 18 47
36 19 26
36 20 46
36 21 21
36 22 23
36 23 16
36 24 14
36 25 19
36 26 51
36 27 5
36 28 4
36 29 32
36 30 52
36 31 1
36 32 22
36 33 14
36 34 10
36 35 8
37 0 21
37 1 60
37 2 48
37 3 36
37 4 28
37 5 57
37 6 28
37 7 10
37 8 33
37 9 40
37 10 29
37 11 28
37 12 36
37 13 12
37 14 22
37 15 43
37 16 28
37 17 24
37 18 11
37 19 7
37 20 27
37 21 14
37 22 4
37 23 50
37 24 42
37 25 55
37 26 39
37 27 19
37 28 51
37 29 3
37 30 15
37 31 28
37 32 23
37 33 59
37 34 5
37 35 60
37 36 26
38 0 8
38 1 49
38 2 42
38 3 21
38 4 12
38 5 14
38 6 37
38 7 55
38 8 4
38 9 53
38 10 38
38 11 13
38 12 11
38 13 54
38 14 17
38 15 34
38 16 39
38 17 28
38 18 28
38 19 49
38 20 13
38 21 29
38 22 10
38 23 16
38 24 58
38 25 33
38 26 1
38 27 35
38 28 20
38 29 10
38 30 53
38 31 47
38 32 55
38 33 53
38 34 21
38 35 13
38 36 58
38 37 54
39 0 3
39 1 39
39 2 41
39 3 60
39 4 3
39 5 26
39 6 48
39 7 9
39 8 48
39 9 8
39 10 41
39 11 4
39 12 31
39 13 56
39 14 26
39 15 27
39 16 35
39 17 58
39 18 26
39 19 56
39 20 52
39 21 19
39 22 13
39 23 38
39 24 43
39 25 9
39 26 57
39 27 5
39 28 57
39 29 27
39 30 39
39 31 59
39 32 27
39 33 21
39 34 59
39 35 43
39 36 52
39 37 41
39 38 13
